8
0 8 12 16 14 18 20 24
8 0 10 14 12 16 18 22
12 10 0 8 10 14 16 20
16 14 8 0 6 10 12 16
14 12 10 6 0 8 10 14
18 16 14 10 8 0 6 10
20 18 16 12 10 6 0 8
24 22 20 16 14 10 8 0
0 0 250 0
1 10 100 4
2 20 110 5
3 30 120 4
4 40 130 6
5 50 140 5
6 60 150 4
7 70 160 5
